<instance format="XCSP3" type="COP">
<variables>
<array id="x" size="[66]"> 0..11 </array>
<array id="l" size="[66]"> 0..205 </array>
<array id="y" size="[12][66]"> 0 1 </array>
</variables>
<constraints>
<group>
<intension> iff(%0,eq(%1,%2)) </intension>
<args> y[0][0] x[0] 0 </args>
<args> y[0][1] x[1] 0 </args>
<args> y[0][2] x[2] 0 </args>
<args> y[0][3] x[3] 0 </args>
<args> y[0][4] x[4] 0 </args>
<args> y[0][5] x[5] 0 </args>
<args> y[0][6] x[6] 0 </args>
<args> y[0][7] x[7] 0 </args>
<args> y[0][8] x[8] 0 </args>
<args> y[0][9] x[9] 0 </args>
<args> y[0][10] x[10] 0 </args>
<args> y[0][11] x[11] 0 </args>
<args> y[0][12] x[12] 0 </args>
<args> y[0][13] x[13] 0 </args>
<args> y[0][14] x[14] 0 </args>
<args> y[0][15] x[15] 0 </args>
<args> y[0][16] x[16] 0 </args>
<args> y[0][17] x[17] 0 </args>
<args> y[0][18] x[18] 0 </args>
<args> y[0][19] x[19] 0 </args>
<args> y[0][20] x[20] 0 </args>
<args> y[0][21] x[21] 0 </args>
<args> y[0][22] x[22] 0 </args>
<args> y[0][23] x[23] 0 </args>
<args> y[0][24] x[24] 0 </args>
<args> y[0][25] x[25] 0 </args>
<args> y[0][26] x[26] 0 </args>
<args> y[0][27] x[27] 0 </args>
<args> y[0][28] x[28] 0 </args>
<args> y[0][29] x[29] 0 </args>
<args> y[0][30] x[30] 0 </args>
<args> y[0][31] x[31] 0 </args>
<args> y[0][32] x[32] 0 </args>
<args> y[0][33] x[33] 0 </args>
<args> y[0][34] x[34] 0 </args>
<args> y[0][35] x[35] 0 </args>
<args> y[0][36] x[36] 0 </args>
<args> y[0][37] x[37] 0 </args>
<args> y[0][38] x[38] 0 </args>
<args> y[0][39] x[39] 0 </args>
<args> y[0][40] x[40] 0 </args>
<args> y[0][41] x[41] 0 </args>
<args> y[0][42] x[42] 0 </args>
<args> y[0][43] x[43] 0 </args>
<args> y[0][44] x[44] 0 </args>
<args> y[0][45] x[45] 0 </args>
<args> y[0][46] x[46] 0 </args>
<args> y[0][47] x[47] 0 </args>
<args> y[0][48] x[48] 0 </args>
<args> y[0][49] x[49] 0 </args>
<args> y[0][50] x[50] 0 </args>
<args> y[0][51] x[51] 0 </args>
<args> y[0][52] x[52] 0 </args>
<args> y[0][53] x[53] 0 </args>
<args> y[0][54] x[54] 0 </args>
<args> y[0][55] x[55] 0 </args>
<args> y[0][56] x[56] 0 </args>
<args> y[0][57] x[57] 0 </args>
<args> y[0][58] x[58] 0 </args>
<args> y[0][59] x[59] 0 </args>
<args> y[0][60] x[60] 0 </args>
<args> y[0][61] x[61] 0 </args>
<args> y[0][62] x[62] 0 </args>
<args> y[0][63] x[63] 0 </args>
<args> y[0][64] x[64] 0 </args>
<args> y[0][65] x[65] 0 </args>
<args> y[1][0] x[0] 1 </args>
<args> y[1][1] x[1] 1 </args>
<args> y[1][2] x[2] 1 </args>
<args> y[1][3] x[3] 1 </args>
<args> y[1][4] x[4] 1 </args>
<args> y[1][5] x[5] 1 </args>
<args> y[1][6] x[6] 1 </args>
<args> y[1][7] x[7] 1 </args>
<args> y[1][8] x[8] 1 </args>
<args> y[1][9] x[9] 1 </args>
<args> y[1][10] x[10] 1 </args>
<args> y[1][11] x[11] 1 </args>
<args> y[1][12] x[12] 1 </args>
<args> y[1][13] x[13] 1 </args>
<args> y[1][14] x[14] 1 </args>
<args> y[1][15] x[15] 1 </args>
<args> y[1][16] x[16] 1 </args>
<args> y[1][17] x[17] 1 </args>
<args> y[1][18] x[18] 1 </args>
<args> y[1][19] x[19] 1 </args>
<args> y[1][20] x[20] 1 </args>
<args> y[1][21] x[21] 1 </args>
<args> y[1][22] x[22] 1 </args>
<args> y[1][23] x[23] 1 </args>
<args> y[1][24] x[24] 1 </args>
<args> y[1][25] x[25] 1 </args>
<args> y[1][26] x[26] 1 </args>
<args> y[1][27] x[27] 1 </args>
<args> y[1][28] x[28] 1 </args>
<args> y[1][29] x[29] 1 </args>
<args> y[1][30] x[30] 1 </args>
<args> y[1][31] x[31] 1 </args>
<args> y[1][32] x[32] 1 </args>
<args> y[1][33] x[33] 1 </args>
<args> y[1][34] x[34] 1 </args>
<args> y[1][35] x[35] 1 </args>
<args> y[1][36] x[36] 1 </args>
<args> y[1][37] x[37] 1 </args>
<args> y[1][38] x[38] 1 </args>
<args> y[1][39] x[39] 1 </args>
<args> y[1][40] x[40] 1 </args>
<args> y[1][41] x[41] 1 </args>
<args> y[1][42] x[42] 1 </args>
<args> y[1][43] x[43] 1 </args>
<args> y[1][44] x[44] 1 </args>
<args> y[1][45] x[45] 1 </args>
<args> y[1][46] x[46] 1 </args>
<args> y[1][47] x[47] 1 </args>
<args> y[1][48] x[48] 1 </args>
<args> y[1][49] x[49] 1 </args>
<args> y[1][50] x[50] 1 </args>
<args> y[1][51] x[51] 1 </args>
<args> y[1][52] x[52] 1 </args>
<args> y[1][53] x[53] 1 </args>
<args> y[1][54] x[54] 1 </args>
<args> y[1][55] x[55] 1 </args>
<args> y[1][56] x[56] 1 </args>
<args> y[1][57] x[57] 1 </args>
<args> y[1][58] x[58] 1 </args>
<args> y[1][59] x[59] 1 </args>
<args> y[1][60] x[60] 1 </args>
<args> y[1][61] x[61] 1 </args>
<args> y[1][62] x[62] 1 </args>
<args> y[1][63] x[63] 1 </args>
<args> y[1][64] x[64] 1 </args>
<args> y[1][65] x[65] 1 </args>
<args> y[2][0] x[0] 2 </args>
<args> y[2][1] x[1] 2 </args>
<args> y[2][2] x[2] 2 </args>
<args> y[2][3] x[3] 2 </args>
<args> y[2][4] x[4] 2 </args>
<args> y[2][5] x[5] 2 </args>
<args> y[2][6] x[6] 2 </args>
<args> y[2][7] x[7] 2 </args>
<args> y[2][8] x[8] 2 </args>
<args> y[2][9] x[9] 2 </args>
<args> y[2][10] x[10] 2 </args>
<args> y[2][11] x[11] 2 </args>
<args> y[2][12] x[12] 2 </args>
<args> y[2][13] x[13] 2 </args>
<args> y[2][14] x[14] 2 </args>
<args> y[2][15] x[15] 2 </args>
<args> y[2][16] x[16] 2 </args>
<args> y[2][17] x[17] 2 </args>
<args> y[2][18] x[18] 2 </args>
<args> y[2][19] x[19] 2 </args>
<args> y[2][20] x[20] 2 </args>
<args> y[2][21] x[21] 2 </args>
<args> y[2][22] x[22] 2 </args>
<args> y[2][23] x[23] 2 </args>
<args> y[2][24] x[24] 2 </args>
<args> y[2][25] x[25] 2 </args>
<args> y[2][26] x[26] 2 </args>
<args> y[2][27] x[27] 2 </args>
<args> y[2][28] x[28] 2 </args>
<args> y[2][29] x[29] 2 </args>
<args> y[2][30] x[30] 2 </args>
<args> y[2][31] x[31] 2 </args>
<args> y[2][32] x[32] 2 </args>
<args> y[2][33] x[33] 2 </args>
<args> y[2][34] x[34] 2 </args>
<args> y[2][35] x[35] 2 </args>
<args> y[2][36] x[36] 2 </args>
<args> y[2][37] x[37] 2 </args>
<args> y[2][38] x[38] 2 </args>
<args> y[2][39] x[39] 2 </args>
<args> y[2][40] x[40] 2 </args>
<args> y[2][41] x[41] 2 </args>
<args> y[2][42] x[42] 2 </args>
<args> y[2][43] x[43] 2 </args>
<args> y[2][44] x[44] 2 </args>
<args> y[2][45] x[45] 2 </args>
<args> y[2][46] x[46] 2 </args>
<args> y[2][47] x[47] 2 </args>
<args> y[2][48] x[48] 2 </args>
<args> y[2][49] x[49] 2 </args>
<args> y[2][50] x[50] 2 </args>
<args> y[2][51] x[51] 2 </args>
<args> y[2][52] x[52] 2 </args>
<args> y[2][53] x[53] 2 </args>
<args> y[2][54] x[54] 2 </args>
<args> y[2][55] x[55] 2 </args>
<args> y[2][56] x[56] 2 </args>
<args> y[2][57] x[57] 2 </args>
<args> y[2][58] x[58] 2 </args>
<args> y[2][59] x[59] 2 </args>
<args> y[2][60] x[60] 2 </args>
<args> y[2][61] x[61] 2 </args>
<args> y[2][62] x[62] 2 </args>
<args> y[2][63] x[63] 2 </args>
<args> y[2][64] x[64] 2 </args>
<args> y[2][65] x[65] 2 </args>
<args> y[3][0] x[0] 3 </args>
<args> y[3][1] x[1] 3 </args>
<args> y[3][2] x[2] 3 </args>
<args> y[3][3] x[3] 3 </args>
<args> y[3][4] x[4] 3 </args>
<args> y[3][5] x[5] 3 </args>
<args> y[3][6] x[6] 3 </args>
<args> y[3][7] x[7] 3 </args>
<args> y[3][8] x[8] 3 </args>
<args> y[3][9] x[9] 3 </args>
<args> y[3][10] x[10] 3 </args>
<args> y[3][11] x[11] 3 </args>
<args> y[3][12] x[12] 3 </args>
<args> y[3][13] x[13] 3 </args>
<args> y[3][14] x[14] 3 </args>
<args> y[3][15] x[15] 3 </args>
<args> y[3][16] x[16] 3 </args>
<args> y[3][17] x[17] 3 </args>
<args> y[3][18] x[18] 3 </args>
<args> y[3][19] x[19] 3 </args>
<args> y[3][20] x[20] 3 </args>
<args> y[3][21] x[21] 3 </args>
<args> y[3][22] x[22] 3 </args>
<args> y[3][23] x[23] 3 </args>
<args> y[3][24] x[24] 3 </args>
<args> y[3][25] x[25] 3 </args>
<args> y[3][26] x[26] 3 </args>
<args> y[3][27] x[27] 3 </args>
<args> y[3][28] x[28] 3 </args>
<args> y[3][29] x[29] 3 </args>
<args> y[3][30] x[30] 3 </args>
<args> y[3][31] x[31] 3 </args>
<args> y[3][32] x[32] 3 </args>
<args> y[3][33] x[33] 3 </args>
<args> y[3][34] x[34] 3 </args>
<args> y[3][35] x[35] 3 </args>
<args> y[3][36] x[36] 3 </args>
<args> y[3][37] x[37] 3 </args>
<args> y[3][38] x[38] 3 </args>
<args> y[3][39] x[39] 3 </args>
<args> y[3][40] x[40] 3 </args>
<args> y[3][41] x[41] 3 </args>
<args> y[3][42] x[42] 3 </args>
<args> y[3][43] x[43] 3 </args>
<args> y[3][44] x[44] 3 </args>
<args> y[3][45] x[45] 3 </args>
<args> y[3][46] x[46] 3 </args>
<args> y[3][47] x[47] 3 </args>
<args> y[3][48] x[48] 3 </args>
<args> y[3][49] x[49] 3 </args>
<args> y[3][50] x[50] 3 </args>
<args> y[3][51] x[51] 3 </args>
<args> y[3][52] x[52] 3 </args>
<args> y[3][53] x[53] 3 </args>
<args> y[3][54] x[54] 3 </args>
<args> y[3][55] x[55] 3 </args>
<args> y[3][56] x[56] 3 </args>
<args> y[3][57] x[57] 3 </args>
<args> y[3][58] x[58] 3 </args>
<args> y[3][59] x[59] 3 </args>
<args> y[3][60] x[60] 3 </args>
<args> y[3][61] x[61] 3 </args>
<args> y[3][62] x[62] 3 </args>
<args> y[3][63] x[63] 3 </args>
<args> y[3][64] x[64] 3 </args>
<args> y[3][65] x[65] 3 </args>
<args> y[4][0] x[0] 4 </args>
<args> y[4][1] x[1] 4 </args>
<args> y[4][2] x[2] 4 </args>
<args> y[4][3] x[3] 4 </args>
<args> y[4][4] x[4] 4 </args>
<args> y[4][5] x[5] 4 </args>
<args> y[4][6] x[6] 4 </args>
<args> y[4][7] x[7] 4 </args>
<args> y[4][8] x[8] 4 </args>
<args> y[4][9] x[9] 4 </args>
<args> y[4][10] x[10] 4 </args>
<args> y[4][11] x[11] 4 </args>
<args> y[4][12] x[12] 4 </args>
<args> y[4][13] x[13] 4 </args>
<args> y[4][14] x[14] 4 </args>
<args> y[4][15] x[15] 4 </args>
<args> y[4][16] x[16] 4 </args>
<args> y[4][17] x[17] 4 </args>
<args> y[4][18] x[18] 4 </args>
<args> y[4][19] x[19] 4 </args>
<args> y[4][20] x[20] 4 </args>
<args> y[4][21] x[21] 4 </args>
<args> y[4][22] x[22] 4 </args>
<args> y[4][23] x[23] 4 </args>
<args> y[4][24] x[24] 4 </args>
<args> y[4][25] x[25] 4 </args>
<args> y[4][26] x[26] 4 </args>
<args> y[4][27] x[27] 4 </args>
<args> y[4][28] x[28] 4 </args>
<args> y[4][29] x[29] 4 </args>
<args> y[4][30] x[30] 4 </args>
<args> y[4][31] x[31] 4 </args>
<args> y[4][32] x[32] 4 </args>
<args> y[4][33] x[33] 4 </args>
<args> y[4][34] x[34] 4 </args>
<args> y[4][35] x[35] 4 </args>
<args> y[4][36] x[36] 4 </args>
<args> y[4][37] x[37] 4 </args>
<args> y[4][38] x[38] 4 </args>
<args> y[4][39] x[39] 4 </args>
<args> y[4][40] x[40] 4 </args>
<args> y[4][41] x[41] 4 </args>
<args> y[4][42] x[42] 4 </args>
<args> y[4][43] x[43] 4 </args>
<args> y[4][44] x[44] 4 </args>
<args> y[4][45] x[45] 4 </args>
<args> y[4][46] x[46] 4 </args>
<args> y[4][47] x[47] 4 </args>
<args> y[4][48] x[48] 4 </args>
<args> y[4][49] x[49] 4 </args>
<args> y[4][50] x[50] 4 </args>
<args> y[4][51] x[51] 4 </args>
<args> y[4][52] x[52] 4 </args>
<args> y[4][53] x[53] 4 </args>
<args> y[4][54] x[54] 4 </args>
<args> y[4][55] x[55] 4 </args>
<args> y[4][56] x[56] 4 </args>
<args> y[4][57] x[57] 4 </args>
<args> y[4][58] x[58] 4 </args>
<args> y[4][59] x[59] 4 </args>
<args> y[4][60] x[60] 4 </args>
<args> y[4][61] x[61] 4 </args>
<args> y[4][62] x[62] 4 </args>
<args> y[4][63] x[63] 4 </args>
<args> y[4][64] x[64] 4 </args>
<args> y[4][65] x[65] 4 </args>
<args> y[5][0] x[0] 5 </args>
<args> y[5][1] x[1] 5 </args>
<args> y[5][2] x[2] 5 </args>
<args> y[5][3] x[3] 5 </args>
<args> y[5][4] x[4] 5 </args>
<args> y[5][5] x[5] 5 </args>
<args> y[5][6] x[6] 5 </args>
<args> y[5][7] x[7] 5 </args>
<args> y[5][8] x[8] 5 </args>
<args> y[5][9] x[9] 5 </args>
<args> y[5][10] x[10] 5 </args>
<args> y[5][11] x[11] 5 </args>
<args> y[5][12] x[12] 5 </args>
<args> y[5][13] x[13] 5 </args>
<args> y[5][14] x[14] 5 </args>
<args> y[5][15] x[15] 5 </args>
<args> y[5][16] x[16] 5 </args>
<args> y[5][17] x[17] 5 </args>
<args> y[5][18] x[18] 5 </args>
<args> y[5][19] x[19] 5 </args>
<args> y[5][20] x[20] 5 </args>
<args> y[5][21] x[21] 5 </args>
<args> y[5][22] x[22] 5 </args>
<args> y[5][23] x[23] 5 </args>
<args> y[5][24] x[24] 5 </args>
<args> y[5][25] x[25] 5 </args>
<args> y[5][26] x[26] 5 </args>
<args> y[5][27] x[27] 5 </args>
<args> y[5][28] x[28] 5 </args>
<args> y[5][29] x[29] 5 </args>
<args> y[5][30] x[30] 5 </args>
<args> y[5][31] x[31] 5 </args>
<args> y[5][32] x[32] 5 </args>
<args> y[5][33] x[33] 5 </args>
<args> y[5][34] x[34] 5 </args>
<args> y[5][35] x[35] 5 </args>
<args> y[5][36] x[36] 5 </args>
<args> y[5][37] x[37] 5 </args>
<args> y[5][38] x[38] 5 </args>
<args> y[5][39] x[39] 5 </args>
<args> y[5][40] x[40] 5 </args>
<args> y[5][41] x[41] 5 </args>
<args> y[5][42] x[42] 5 </args>
<args> y[5][43] x[43] 5 </args>
<args> y[5][44] x[44] 5 </args>
<args> y[5][45] x[45] 5 </args>
<args> y[5][46] x[46] 5 </args>
<args> y[5][47] x[47] 5 </args>
<args> y[5][48] x[48] 5 </args>
<args> y[5][49] x[49] 5 </args>
<args> y[5][50] x[50] 5 </args>
<args> y[5][51] x[51] 5 </args>
<args> y[5][52] x[52] 5 </args>
<args> y[5][53] x[53] 5 </args>
<args> y[5][54] x[54] 5 </args>
<args> y[5][55] x[55] 5 </args>
<args> y[5][56] x[56] 5 </args>
<args> y[5][57] x[57] 5 </args>
<args> y[5][58] x[58] 5 </args>
<args> y[5][59] x[59] 5 </args>
<args> y[5][60] x[60] 5 </args>
<args> y[5][61] x[61] 5 </args>
<args> y[5][62] x[62] 5 </args>
<args> y[5][63] x[63] 5 </args>
<args> y[5][64] x[64] 5 </args>
<args> y[5][65] x[65] 5 </args>
<args> y[6][0] x[0] 6 </args>
<args> y[6][1] x[1] 6 </args>
<args> y[6][2] x[2] 6 </args>
<args> y[6][3] x[3] 6 </args>
<args> y[6][4] x[4] 6 </args>
<args> y[6][5] x[5] 6 </args>
<args> y[6][6] x[6] 6 </args>
<args> y[6][7] x[7] 6 </args>
<args> y[6][8] x[8] 6 </args>
<args> y[6][9] x[9] 6 </args>
<args> y[6][10] x[10] 6 </args>
<args> y[6][11] x[11] 6 </args>
<args> y[6][12] x[12] 6 </args>
<args> y[6][13] x[13] 6 </args>
<args> y[6][14] x[14] 6 </args>
<args> y[6][15] x[15] 6 </args>
<args> y[6][16] x[16] 6 </args>
<args> y[6][17] x[17] 6 </args>
<args> y[6][18] x[18] 6 </args>
<args> y[6][19] x[19] 6 </args>
<args> y[6][20] x[20] 6 </args>
<args> y[6][21] x[21] 6 </args>
<args> y[6][22] x[22] 6 </args>
<args> y[6][23] x[23] 6 </args>
<args> y[6][24] x[24] 6 </args>
<args> y[6][25] x[25] 6 </args>
<args> y[6][26] x[26] 6 </args>
<args> y[6][27] x[27] 6 </args>
<args> y[6][28] x[28] 6 </args>
<args> y[6][29] x[29] 6 </args>
<args> y[6][30] x[30] 6 </args>
<args> y[6][31] x[31] 6 </args>
<args> y[6][32] x[32] 6 </args>
<args> y[6][33] x[33] 6 </args>
<args> y[6][34] x[34] 6 </args>
<args> y[6][35] x[35] 6 </args>
<args> y[6][36] x[36] 6 </args>
<args> y[6][37] x[37] 6 </args>
<args> y[6][38] x[38] 6 </args>
<args> y[6][39] x[39] 6 </args>
<args> y[6][40] x[40] 6 </args>
<args> y[6][41] x[41] 6 </args>
<args> y[6][42] x[42] 6 </args>
<args> y[6][43] x[43] 6 </args>
<args> y[6][44] x[44] 6 </args>
<args> y[6][45] x[45] 6 </args>
<args> y[6][46] x[46] 6 </args>
<args> y[6][47] x[47] 6 </args>
<args> y[6][48] x[48] 6 </args>
<args> y[6][49] x[49] 6 </args>
<args> y[6][50] x[50] 6 </args>
<args> y[6][51] x[51] 6 </args>
<args> y[6][52] x[52] 6 </args>
<args> y[6][53] x[53] 6 </args>
<args> y[6][54] x[54] 6 </args>
<args> y[6][55] x[55] 6 </args>
<args> y[6][56] x[56] 6 </args>
<args> y[6][57] x[57] 6 </args>
<args> y[6][58] x[58] 6 </args>
<args> y[6][59] x[59] 6 </args>
<args> y[6][60] x[60] 6 </args>
<args> y[6][61] x[61] 6 </args>
<args> y[6][62] x[62] 6 </args>
<args> y[6][63] x[63] 6 </args>
<args> y[6][64] x[64] 6 </args>
<args> y[6][65] x[65] 6 </args>
<args> y[7][0] x[0] 7 </args>
<args> y[7][1] x[1] 7 </args>
<args> y[7][2] x[2] 7 </args>
<args> y[7][3] x[3] 7 </args>
<args> y[7][4] x[4] 7 </args>
<args> y[7][5] x[5] 7 </args>
<args> y[7][6] x[6] 7 </args>
<args> y[7][7] x[7] 7 </args>
<args> y[7][8] x[8] 7 </args>
<args> y[7][9] x[9] 7 </args>
<args> y[7][10] x[10] 7 </args>
<args> y[7][11] x[11] 7 </args>
<args> y[7][12] x[12] 7 </args>
<args> y[7][13] x[13] 7 </args>
<args> y[7][14] x[14] 7 </args>
<args> y[7][15] x[15] 7 </args>
<args> y[7][16] x[16] 7 </args>
<args> y[7][17] x[17] 7 </args>
<args> y[7][18] x[18] 7 </args>
<args> y[7][19] x[19] 7 </args>
<args> y[7][20] x[20] 7 </args>
<args> y[7][21] x[21] 7 </args>
<args> y[7][22] x[22] 7 </args>
<args> y[7][23] x[23] 7 </args>
<args> y[7][24] x[24] 7 </args>
<args> y[7][25] x[25] 7 </args>
<args> y[7][26] x[26] 7 </args>
<args> y[7][27] x[27] 7 </args>
<args> y[7][28] x[28] 7 </args>
<args> y[7][29] x[29] 7 </args>
<args> y[7][30] x[30] 7 </args>
<args> y[7][31] x[31] 7 </args>
<args> y[7][32] x[32] 7 </args>
<args> y[7][33] x[33] 7 </args>
<args> y[7][34] x[34] 7 </args>
<args> y[7][35] x[35] 7 </args>
<args> y[7][36] x[36] 7 </args>
<args> y[7][37] x[37] 7 </args>
<args> y[7][38] x[38] 7 </args>
<args> y[7][39] x[39] 7 </args>
<args> y[7][40] x[40] 7 </args>
<args> y[7][41] x[41] 7 </args>
<args> y[7][42] x[42] 7 </args>
<args> y[7][43] x[43] 7 </args>
<args> y[7][44] x[44] 7 </args>
<args> y[7][45] x[45] 7 </args>
<args> y[7][46] x[46] 7 </args>
<args> y[7][47] x[47] 7 </args>
<args> y[7][48] x[48] 7 </args>
<args> y[7][49] x[49] 7 </args>
<args> y[7][50] x[50] 7 </args>
<args> y[7][51] x[51] 7 </args>
<args> y[7][52] x[52] 7 </args>
<args> y[7][53] x[53] 7 </args>
<args> y[7][54] x[54] 7 </args>
<args> y[7][55] x[55] 7 </args>
<args> y[7][56] x[56] 7 </args>
<args> y[7][57] x[57] 7 </args>
<args> y[7][58] x[58] 7 </args>
<args> y[7][59] x[59] 7 </args>
<args> y[7][60] x[60] 7 </args>
<args> y[7][61] x[61] 7 </args>
<args> y[7][62] x[62] 7 </args>
<args> y[7][63] x[63] 7 </args>
<args> y[7][64] x[64] 7 </args>
<args> y[7][65] x[65] 7 </args>
<args> y[8][0] x[0] 8 </args>
<args> y[8][1] x[1] 8 </args>
<args> y[8][2] x[2] 8 </args>
<args> y[8][3] x[3] 8 </args>
<args> y[8][4] x[4] 8 </args>
<args> y[8][5] x[5] 8 </args>
<args> y[8][6] x[6] 8 </args>
<args> y[8][7] x[7] 8 </args>
<args> y[8][8] x[8] 8 </args>
<args> y[8][9] x[9] 8 </args>
<args> y[8][10] x[10] 8 </args>
<args> y[8][11] x[11] 8 </args>
<args> y[8][12] x[12] 8 </args>
<args> y[8][13] x[13] 8 </args>
<args> y[8][14] x[14] 8 </args>
<args> y[8][15] x[15] 8 </args>
<args> y[8][16] x[16] 8 </args>
<args> y[8][17] x[17] 8 </args>
<args> y[8][18] x[18] 8 </args>
<args> y[8][19] x[19] 8 </args>
<args> y[8][20] x[20] 8 </args>
<args> y[8][21] x[21] 8 </args>
<args> y[8][22] x[22] 8 </args>
<args> y[8][23] x[23] 8 </args>
<args> y[8][24] x[24] 8 </args>
<args> y[8][25] x[25] 8 </args>
<args> y[8][26] x[26] 8 </args>
<args> y[8][27] x[27] 8 </args>
<args> y[8][28] x[28] 8 </args>
<args> y[8][29] x[29] 8 </args>
<args> y[8][30] x[30] 8 </args>
<args> y[8][31] x[31] 8 </args>
<args> y[8][32] x[32] 8 </args>
<args> y[8][33] x[33] 8 </args>
<args> y[8][34] x[34] 8 </args>
<args> y[8][35] x[35] 8 </args>
<args> y[8][36] x[36] 8 </args>
<args> y[8][37] x[37] 8 </args>
<args> y[8][38] x[38] 8 </args>
<args> y[8][39] x[39] 8 </args>
<args> y[8][40] x[40] 8 </args>
<args> y[8][41] x[41] 8 </args>
<args> y[8][42] x[42] 8 </args>
<args> y[8][43] x[43] 8 </args>
<args> y[8][44] x[44] 8 </args>
<args> y[8][45] x[45] 8 </args>
<args> y[8][46] x[46] 8 </args>
<args> y[8][47] x[47] 8 </args>
<args> y[8][48] x[48] 8 </args>
<args> y[8][49] x[49] 8 </args>
<args> y[8][50] x[50] 8 </args>
<args> y[8][51] x[51] 8 </args>
<args> y[8][52] x[52] 8 </args>
<args> y[8][53] x[53] 8 </args>
<args> y[8][54] x[54] 8 </args>
<args> y[8][55] x[55] 8 </args>
<args> y[8][56] x[56] 8 </args>
<args> y[8][57] x[57] 8 </args>
<args> y[8][58] x[58] 8 </args>
<args> y[8][59] x[59] 8 </args>
<args> y[8][60] x[60] 8 </args>
<args> y[8][61] x[61] 8 </args>
<args> y[8][62] x[62] 8 </args>
<args> y[8][63] x[63] 8 </args>
<args> y[8][64] x[64] 8 </args>
<args> y[8][65] x[65] 8 </args>
<args> y[9][0] x[0] 9 </args>
<args> y[9][1] x[1] 9 </args>
<args> y[9][2] x[2] 9 </args>
<args> y[9][3] x[3] 9 </args>
<args> y[9][4] x[4] 9 </args>
<args> y[9][5] x[5] 9 </args>
<args> y[9][6] x[6] 9 </args>
<args> y[9][7] x[7] 9 </args>
<args> y[9][8] x[8] 9 </args>
<args> y[9][9] x[9] 9 </args>
<args> y[9][10] x[10] 9 </args>
<args> y[9][11] x[11] 9 </args>
<args> y[9][12] x[12] 9 </args>
<args> y[9][13] x[13] 9 </args>
<args> y[9][14] x[14] 9 </args>
<args> y[9][15] x[15] 9 </args>
<args> y[9][16] x[16] 9 </args>
<args> y[9][17] x[17] 9 </args>
<args> y[9][18] x[18] 9 </args>
<args> y[9][19] x[19] 9 </args>
<args> y[9][20] x[20] 9 </args>
<args> y[9][21] x[21] 9 </args>
<args> y[9][22] x[22] 9 </args>
<args> y[9][23] x[23] 9 </args>
<args> y[9][24] x[24] 9 </args>
<args> y[9][25] x[25] 9 </args>
<args> y[9][26] x[26] 9 </args>
<args> y[9][27] x[27] 9 </args>
<args> y[9][28] x[28] 9 </args>
<args> y[9][29] x[29] 9 </args>
<args> y[9][30] x[30] 9 </args>
<args> y[9][31] x[31] 9 </args>
<args> y[9][32] x[32] 9 </args>
<args> y[9][33] x[33] 9 </args>
<args> y[9][34] x[34] 9 </args>
<args> y[9][35] x[35] 9 </args>
<args> y[9][36] x[36] 9 </args>
<args> y[9][37] x[37] 9 </args>
<args> y[9][38] x[38] 9 </args>
<args> y[9][39] x[39] 9 </args>
<args> y[9][40] x[40] 9 </args>
<args> y[9][41] x[41] 9 </args>
<args> y[9][42] x[42] 9 </args>
<args> y[9][43] x[43] 9 </args>
<args> y[9][44] x[44] 9 </args>
<args> y[9][45] x[45] 9 </args>
<args> y[9][46] x[46] 9 </args>
<args> y[9][47] x[47] 9 </args>
<args> y[9][48] x[48] 9 </args>
<args> y[9][49] x[49] 9 </args>
<args> y[9][50] x[50] 9 </args>
<args> y[9][51] x[51] 9 </args>
<args> y[9][52] x[52] 9 </args>
<args> y[9][53] x[53] 9 </args>
<args> y[9][54] x[54] 9 </args>
<args> y[9][55] x[55] 9 </args>
<args> y[9][56] x[56] 9 </args>
<args> y[9][57] x[57] 9 </args>
<args> y[9][58] x[58] 9 </args>
<args> y[9][59] x[59] 9 </args>
<args> y[9][60] x[60] 9 </args>
<args> y[9][61] x[61] 9 </args>
<args> y[9][62] x[62] 9 </args>
<args> y[9][63] x[63] 9 </args>
<args> y[9][64] x[64] 9 </args>
<args> y[9][65] x[65] 9 </args>
<args> y[10][0] x[0] 10 </args>
<args> y[10][1] x[1] 10 </args>
<args> y[10][2] x[2] 10 </args>
<args> y[10][3] x[3] 10 </args>
<args> y[10][4] x[4] 10 </args>
<args> y[10][5] x[5] 10 </args>
<args> y[10][6] x[6] 10 </args>
<args> y[10][7] x[7] 10 </args>
<args> y[10][8] x[8] 10 </args>
<args> y[10][9] x[9] 10 </args>
<args> y[10][10] x[10] 10 </args>
<args> y[10][11] x[11] 10 </args>
<args> y[10][12] x[12] 10 </args>
<args> y[10][13] x[13] 10 </args>
<args> y[10][14] x[14] 10 </args>
<args> y[10][15] x[15] 10 </args>
<args> y[10][16] x[16] 10 </args>
<args> y[10][17] x[17] 10 </args>
<args> y[10][18] x[18] 10 </args>
<args> y[10][19] x[19] 10 </args>
<args> y[10][20] x[20] 10 </args>
<args> y[10][21] x[21] 10 </args>
<args> y[10][22] x[22] 10 </args>
<args> y[10][23] x[23] 10 </args>
<args> y[10][24] x[24] 10 </args>
<args> y[10][25] x[25] 10 </args>
<args> y[10][26] x[26] 10 </args>
<args> y[10][27] x[27] 10 </args>
<args> y[10][28] x[28] 10 </args>
<args> y[10][29] x[29] 10 </args>
<args> y[10][30] x[30] 10 </args>
<args> y[10][31] x[31] 10 </args>
<args> y[10][32] x[32] 10 </args>
<args> y[10][33] x[33] 10 </args>
<args> y[10][34] x[34] 10 </args>
<args> y[10][35] x[35] 10 </args>
<args> y[10][36] x[36] 10 </args>
<args> y[10][37] x[37] 10 </args>
<args> y[10][38] x[38] 10 </args>
<args> y[10][39] x[39] 10 </args>
<args> y[10][40] x[40] 10 </args>
<args> y[10][41] x[41] 10 </args>
<args> y[10][42] x[42] 10 </args>
<args> y[10][43] x[43] 10 </args>
<args> y[10][44] x[44] 10 </args>
<args> y[10][45] x[45] 10 </args>
<args> y[10][46] x[46] 10 </args>
<args> y[10][47] x[47] 10 </args>
<args> y[10][48] x[48] 10 </args>
<args> y[10][49] x[49] 10 </args>
<args> y[10][50] x[50] 10 </args>
<args> y[10][51] x[51] 10 </args>
<args> y[10][52] x[52] 10 </args>
<args> y[10][53] x[53] 10 </args>
<args> y[10][54] x[54] 10 </args>
<args> y[10][55] x[55] 10 </args>
<args> y[10][56] x[56] 10 </args>
<args> y[10][57] x[57] 10 </args>
<args> y[10][58] x[58] 10 </args>
<args> y[10][59] x[59] 10 </args>
<args> y[10][60] x[60] 10 </args>
<args> y[10][61] x[61] 10 </args>
<args> y[10][62] x[62] 10 </args>
<args> y[10][63] x[63] 10 </args>
<args> y[10][64] x[64] 10 </args>
<args> y[10][65] x[65] 10 </args>
<args> y[11][0] x[0] 11 </args>
<args> y[11][1] x[1] 11 </args>
<args> y[11][2] x[2] 11 </args>
<args> y[11][3] x[3] 11 </args>
<args> y[11][4] x[4] 11 </args>
<args> y[11][5] x[5] 11 </args>
<args> y[11][6] x[6] 11 </args>
<args> y[11][7] x[7] 11 </args>
<args> y[11][8] x[8] 11 </args>
<args> y[11][9] x[9] 11 </args>
<args> y[11][10] x[10] 11 </args>
<args> y[11][11] x[11] 11 </args>
<args> y[11][12] x[12] 11 </args>
<args> y[11][13] x[13] 11 </args>
<args> y[11][14] x[14] 11 </args>
<args> y[11][15] x[15] 11 </args>
<args> y[11][16] x[16] 11 </args>
<args> y[11][17] x[17] 11 </args>
<args> y[11][18] x[18] 11 </args>
<args> y[11][19] x[19] 11 </args>
<args> y[11][20] x[20] 11 </args>
<args> y[11][21] x[21] 11 </args>
<args> y[11][22] x[22] 11 </args>
<args> y[11][23] x[23] 11 </args>
<args> y[11][24] x[24] 11 </args>
<args> y[11][25] x[25] 11 </args>
<args> y[11][26] x[26] 11 </args>
<args> y[11][27] x[27] 11 </args>
<args> y[11][28] x[28] 11 </args>
<args> y[11][29] x[29] 11 </args>
<args> y[11][30] x[30] 11 </args>
<args> y[11][31] x[31] 11 </args>
<args> y[11][32] x[32] 11 </args>
<args> y[11][33] x[33] 11 </args>
<args> y[11][34] x[34] 11 </args>
<args> y[11][35] x[35] 11 </args>
<args> y[11][36] x[36] 11 </args>
<args> y[11][37] x[37] 11 </args>
<args> y[11][38] x[38] 11 </args>
<args> y[11][39] x[39] 11 </args>
<args> y[11][40] x[40] 11 </args>
<args> y[11][41] x[41] 11 </args>
<args> y[11][42] x[42] 11 </args>
<args> y[11][43] x[43] 11 </args>
<args> y[11][44] x[44] 11 </args>
<args> y[11][45] x[45] 11 </args>
<args> y[11][46] x[46] 11 </args>
<args> y[11][47] x[47] 11 </args>
<args> y[11][48] x[48] 11 </args>
<args> y[11][49] x[49] 11 </args>
<args> y[11][50] x[50] 11 </args>
<args> y[11][51] x[51] 11 </args>
<args> y[11][52] x[52] 11 </args>
<args> y[11][53] x[53] 11 </args>
<args> y[11][54] x[54] 11 </args>
<args> y[11][55] x[55] 11 </args>
<args> y[11][56] x[56] 11 </args>
<args> y[11][57] x[57] 11 </args>
<args> y[11][58] x[58] 11 </args>
<args> y[11][59] x[59] 11 </args>
<args> y[11][60] x[60] 11 </args>
<args> y[11][61] x[61] 11 </args>
<args> y[11][62] x[62] 11 </args>
<args> y[11][63] x[63] 11 </args>
<args> y[11][64] x[64] 11 </args>
<args> y[11][65] x[65] 11 </args>
</group>
<sum>
<list> y[0][] </list>
<coeffs> 5 5 4 5 1 2 1 1 4 4 1 5 3 4 2 1 1 5 2 4 2 4 5 1 3 2 4 4 5 1 3 4 5 3 5 5 3 5 2 2 5 1 2 5 4 4 2 4 5 2 2 2 5 1 5 1 2 2 1 4 1 3 5 5 2 2 </coeffs>
<condition> (eq,l[0]) </condition>
</sum>
<sum>
<list> y[1][] </list>
<coeffs> 5 5 4 5 1 2 1 1 4 4 1 5 3 4 2 1 1 5 2 4 2 4 5 1 3 2 4 4 5 1 3 4 5 3 5 5 3 5 2 2 5 1 2 5 4 4 2 4 5 2 2 2 5 1 5 1 2 2 1 4 1 3 5 5 2 2 </coeffs>
<condition> (eq,l[1]) </condition>
</sum>
<sum>
<list> y[2][] </list>
<coeffs> 5 5 4 5 1 2 1 1 4 4 1 5 3 4 2 1 1 5 2 4 2 4 5 1 3 2 4 4 5 1 3 4 5 3 5 5 3 5 2 2 5 1 2 5 4 4 2 4 5 2 2 2 5 1 5 1 2 2 1 4 1 3 5 5 2 2 </coeffs>
<condition> (eq,l[2]) </condition>
</sum>
<sum>
<list> y[3][] </list>
<coeffs> 5 5 4 5 1 2 1 1 4 4 1 5 3 4 2 1 1 5 2 4 2 4 5 1 3 2 4 4 5 1 3 4 5 3 5 5 3 5 2 2 5 1 2 5 4 4 2 4 5 2 2 2 5 1 5 1 2 2 1 4 1 3 5 5 2 2 </coeffs>
<condition> (eq,l[3]) </condition>
</sum>
<sum>
<list> y[4][] </list>
<coeffs> 5 5 4 5 1 2 1 1 4 4 1 5 3 4 2 1 1 5 2 4 2 4 5 1 3 2 4 4 5 1 3 4 5 3 5 5 3 5 2 2 5 1 2 5 4 4 2 4 5 2 2 2 5 1 5 1 2 2 1 4 1 3 5 5 2 2 </coeffs>
<condition> (eq,l[4]) </condition>
</sum>
<sum>
<list> y[5][] </list>
<coeffs> 5 5 4 5 1 2 1 1 4 4 1 5 3 4 2 1 1 5 2 4 2 4 5 1 3 2 4 4 5 1 3 4 5 3 5 5 3 5 2 2 5 1 2 5 4 4 2 4 5 2 2 2 5 1 5 1 2 2 1 4 1 3 5 5 2 2 </coeffs>
<condition> (eq,l[5]) </condition>
</sum>
<sum>
<list> y[6][] </list>
<coeffs> 5 5 4 5 1 2 1 1 4 4 1 5 3 4 2 1 1 5 2 4 2 4 5 1 3 2 4 4 5 1 3 4 5 3 5 5 3 5 2 2 5 1 2 5 4 4 2 4 5 2 2 2 5 1 5 1 2 2 1 4 1 3 5 5 2 2 </coeffs>
<condition> (eq,l[6]) </condition>
</sum>
<sum>
<list> y[7][] </list>
<coeffs> 5 5 4 5 1 2 1 1 4 4 1 5 3 4 2 1 1 5 2 4 2 4 5 1 3 2 4 4 5 1 3 4 5 3 5 5 3 5 2 2 5 1 2 5 4 4 2 4 5 2 2 2 5 1 5 1 2 2 1 4 1 3 5 5 2 2 </coeffs>
<condition> (eq,l[7]) </condition>
</sum>
<sum>
<list> y[8][] </list>
<coeffs> 5 5 4 5 1 2 1 1 4 4 1 5 3 4 2 1 1 5 2 4 2 4 5 1 3 2 4 4 5 1 3 4 5 3 5 5 3 5 2 2 5 1 2 5 4 4 2 4 5 2 2 2 5 1 5 1 2 2 1 4 1 3 5 5 2 2 </coeffs>
<condition> (eq,l[8]) </condition>
</sum>
<sum>
<list> y[9][] </list>
<coeffs> 5 5 4 5 1 2 1 1 4 4 1 5 3 4 2 1 1 5 2 4 2 4 5 1 3 2 4 4 5 1 3 4 5 3 5 5 3 5 2 2 5 1 2 5 4 4 2 4 5 2 2 2 5 1 5 1 2 2 1 4 1 3 5 5 2 2 </coeffs>
<condition> (eq,l[9]) </condition>
</sum>
<sum>
<list> y[10][] </list>
<coeffs> 5 5 4 5 1 2 1 1 4 4 1 5 3 4 2 1 1 5 2 4 2 4 5 1 3 2 4 4 5 1 3 4 5 3 5 5 3 5 2 2 5 1 2 5 4 4 2 4 5 2 2 2 5 1 5 1 2 2 1 4 1 3 5 5 2 2 </coeffs>
<condition> (eq,l[10]) </condition>
</sum>
<sum>
<list> y[11][] </list>
<coeffs> 5 5 4 5 1 2 1 1 4 4 1 5 3 4 2 1 1 5 2 4 2 4 5 1 3 2 4 4 5 1 3 4 5 3 5 5 3 5 2 2 5 1 2 5 4 4 2 4 5 2 2 2 5 1 5 1 2 2 1 4 1 3 5 5 2 2 </coeffs>
<condition> (eq,l[11]) </condition>
</sum>
<sum>
<list> l[] </list>
<condition> (eq,205) </condition>
</sum>
<group>
<intension> lt(%0,%1) </intension>
<args> x[6] x[0] </args>
<args> x[7] x[5] </args>
<args> x[9] x[4] </args>
<args> x[10] x[5] </args>
<args> x[12] x[7] </args>
<args> x[12] x[10] </args>
<args> x[15] x[8] </args>
<args> x[16] x[9] </args>
<args> x[16] x[10] </args>
<args> x[17] x[9] </args>
<args> x[17] x[10] </args>
<args> x[18] x[7] </args>
<args> x[18] x[10] </args>
<args> x[19] x[8] </args>
<args> x[22] x[16] </args>
<args> x[22] x[17] </args>
<args> x[23] x[12] </args>
<args> x[25] x[22] </args>
<args> x[31] x[8] </args>
<args> x[32] x[26] </args>
<args> x[33] x[16] </args>
<args> x[34] x[8] </args>
<args> x[34] x[16] </args>
<args> x[34] x[17] </args>
<args> x[36] x[29] </args>
<args> x[36] x[34] </args>
<args> x[37] x[32] </args>
<args> x[40] x[16] </args>
<args> x[40] x[17] </args>
<args> x[42] x[19] </args>
<args> x[43] x[15] </args>
<args> x[44] x[37] </args>
<args> x[45] x[36] </args>
<args> x[46] x[41] </args>
<args> x[47] x[34] </args>
<args> x[48] x[29] </args>
<args> x[48] x[31] </args>
<args> x[49] x[42] </args>
<args> x[50] x[32] </args>
<args> x[52] x[46] </args>
<args> x[54] x[42] </args>
<args> x[54] x[37] </args>
<args> x[56] x[38] </args>
<args> x[56] x[33] </args>
<args> x[57] x[27] </args>
<args> x[58] x[54] </args>
<args> x[60] x[47] </args>
<args> x[60] x[54] </args>
<args> x[61] x[30] </args>
<args> x[62] x[47] </args>
</group>
</constraints>
<objectives>
<minimize type="maximum"> l[] </minimize>
</objectives>
</instance>
